certificates/rado_a14_c262_N41.drat
20 -39 -40 17 0
-20 -41 0
-40 -41 0
-41 0
17 0
20 0
-2 0
-38 0
-35 0
-16 0
40 0
3 0
-22 0
-21 0
-27 0
34 0
6 0
9 0
-10 0
-24 0
-30 0
-33 0
1 0
-25 0
-19 0
29 0
18 0
0
